NAME : Unnamed.867.tour
COMMENT : Length = 867
COMMENT : Found by LKH [Keld Helsgaun] Tue Jan 13 16:45:17 2015
TYPE : TOUR
DIMENSION : 115
TOUR_SECTION
1
16
12
17
74
72
68
84
103
86
79
87
7
85
112
90
101
114
88
105
111
92
96
110
102
81
113
109
78
91
106
97
100
65
71
24
37
52
59
48
43
54
51
33
28
34
58
94
75
41
35
57
23
70
64
73
67
77
98
107
83
104
93
89
95
99
108
66
69
55
40
31
44
36
27
30
50
39
26
29
38
42
53
25
22
60
45
56
63
46
32
61
49
62
47
76
82
5
6
9
10
80
8
3
2
21
11
115
19
4
15
18
13
14
20
-1
EOF
